
%FILE DATA:	Soccer Computational Problem for MiniZinc Models	%
%AUTHOR:	Jack Wall	%
%CONTACT:  	116397063@umail.ucc.ie			%
%LAST UPDATE:	03/19/2020, 20:58:59						%
%DESCRIPTION: 	288 games played with 18 games left				%


n=18; %number of teams

%Games to play
games=[|3,2|11,6|6,4|5,3|6,2|16,15|9,16|12,5|1,11|15,12|7,17|15,8|9,3|4,18|9,13|10,9|8,5|17,7|];

%Initial points
iPoints=[44,46,43,56,54,40,37,47,37,45,33,53,37,47,33,36,41,44];

%POSITION CONSTRAINTS
% [|teamID, operator, position|...]
% operators index:
%  1 for =  operator
%  2 for >  operator
%  3 for >= operator
%  4 for <  operator
%  5 for <= operator
positionConstraints=[|4,3,1|5,2,1|12,2,2|];